151
100000
14943
43099
439
14708
12452
26521
32711
29033
15809
10028
9590
4129
20610
4913
8015
35974
1318
9326
46013
21733
10386
23107
15393
43501
6087
49068
14895
25906
307
17196
24552
26016
4543
36327
21281
5204
24530
41050
8561
2070
20216
48835
6023
6450
40365
46335
3539
16641
12484
24444
20763
26562
6275
18861
28849
9560
12896
2049
21870
19536
29058
32897
43711
18734
5926
8212
38856
7991
5127
4798
31134
5704
765
16300
16552
11216
7416
38957
4683
42072
8940
1927
14533
33405
7785
12050
45715
44399
29962
4107
34925
42558
6526
16746
24344
3519
22211
8592
1146
45630
7560
20895
7681
7555
1369
16169
19259
16480
14274
2121
15086
35479
7190
7030
18526
32577
32883
36098
10173
36627
23221
37256
9636
34116
17183
42356
21066
24331
26283
44458
7177
11236
7039
26113
30179
27124
34725
45005
12298
5940
33610
32807
30498
4026
17
3720
10488
33813
37694
10242
38285
